data/solutions/recovery/degenerate/intermediate/binding/degenerate_intermediate_instance21/4.sol
Elapsed time: 0.04
Upper bound: 29437405.0
Planning weighted value: 1.12539706973e+11
C[0]=29437405.0
C[1]=29338790.0
C[2]=29160425.0
C[3]=29097788.0
C[4]=29001771.0
C[5]=28613084.0
C[6]=28612483.0
C[7]=27417431.0
C[8]=26427767.0
C[9]=23891602.0
C[10]=0.0
C[11]=0.0
y[0]=1
y[1]=0
y[2]=0
y[3]=4
y[4]=7
y[5]=8
y[6]=4
y[7]=8
y[8]=1
y[9]=3
y[10]=4
y[11]=6
y[12]=1
y[13]=5
y[14]=7
y[15]=1
y[16]=3
y[17]=4
y[18]=6
y[19]=1
y[20]=3
y[21]=5
y[22]=2
y[23]=1
y[24]=5
y[25]=7
y[26]=1
y[27]=4
y[28]=3
y[29]=1
y[30]=9
y[31]=8
y[32]=5
y[33]=6
y[34]=7
y[35]=2
y[36]=6
y[37]=5
y[38]=2
y[39]=1
y[40]=3
y[41]=4
y[42]=9
y[43]=4
y[44]=8
y[45]=8
y[46]=8
y[47]=3
y[48]=1
y[49]=6
y[50]=9
y[51]=4
y[52]=5
y[53]=3
y[54]=3
y[55]=1
y[56]=2
y[57]=7
y[58]=5
y[59]=7
y[60]=0
y[61]=4
y[62]=2
y[63]=4
y[64]=0
