data/solutions/recovery/degenerate/intermediate/binding/degenerate_intermediate_instance21/4.log

Log started (V12.6.3.0) Sun Apr 22 12:28:55 2018

New value for default parallel thread count: 1

Problem '/tmp/tmpfagkSw.pyomo.lp' read.
Read time = 0.01 sec. (0.43 ticks)

Problem name         : /tmp/tmpfagkSw.pyomo.lp
Objective sense      : Minimize
Variables            :     794  [Nneg: 1,  Binary: 780,  General Integer: 13]
Objective nonzeros   :       1
Linear constraints   :     157  [Less: 77,  Equal: 80]
  Nonzeros           :   30291
  RHS nonzeros       :      66

Variables            : Min LB: 0.000000         Max UB: 1.000000       
Objective nonzeros   : Min   : 1.000000         Max   : 1.000000       
Linear constraints   :
  Nonzeros           : Min   : 1.000000         Max   : 8298339.       
  RHS nonzeros       : Min   : 1.000000         Max   : 1.000000       
Tried aggregator 2 times.
MIP Presolve eliminated 114 rows and 553 columns.
Aggregator did 10 substitutions.
Reduced MIP has 33 rows, 231 columns, and 470 nonzeros.
Reduced MIP has 230 binaries, 1 generals, 0 SOSs, and 0 indicators.
Presolve time = 0.00 sec. (2.77 ticks)
Found incumbent of value 7.4576871e+07 after 0.01 sec. (3.60 ticks)
Probing time = 0.00 sec. (0.21 ticks)
Tried aggregator 1 time.
Reduced MIP has 33 rows, 231 columns, and 470 nonzeros.
Reduced MIP has 230 binaries, 1 generals, 0 SOSs, and 0 indicators.
Presolve time = 0.00 sec. (0.37 ticks)
Probing time = 0.00 sec. (0.21 ticks)
Clique table members: 23.
MIP emphasis: balance optimality and feasibility.
MIP search method: dynamic search.
Parallel mode: none, using 1 thread.
Root relaxation solution time = 0.00 sec. (0.36 ticks)

        Nodes                                         Cuts/
   Node  Left     Objective  IInf  Best Integer    Best Bound    ItCnt     Gap

*     0+    0                       7.45769e+07   2.94374e+07            60.53%
      0     0   2.94374e+07    13   7.45769e+07   2.94374e+07       51   60.53%
*     0+    0                       3.17551e+07   2.94374e+07             7.30%
      0     0   2.94374e+07     8   3.17551e+07       Cuts: 2       60    7.30%
*     0+    0                       3.14452e+07   2.94374e+07             6.39%
      0     0   2.94374e+07     7   3.14452e+07       Cuts: 5       74    6.39%
*     0+    0                       3.13086e+07   2.94374e+07             5.98%
      0     0   2.94374e+07    13   3.13086e+07       Cuts: 3       79    5.98%
*     0+    0                       3.11012e+07   2.94374e+07             5.35%
*     0+    0                       2.94374e+07   2.94374e+07             0.00%
      0     0        cutoff         2.94374e+07   2.94374e+07       79    0.00%
Elapsed time = 0.02 sec. (11.95 ticks, tree = 0.01 MB, solutions = 6)

Clique cuts applied:  1
Mixed integer rounding cuts applied:  1
Gomory fractional cuts applied:  2

Root node processing (before b&c):
  Real time             =    0.02 sec. (12.00 ticks)
Sequential b&c:
  Real time             =    0.00 sec. (0.00 ticks)
                          ------------
Total (root+branch&cut) =    0.02 sec. (12.00 ticks)

Solution pool: 6 solutions saved.

MIP - Integer optimal solution:  Objective =  2.9437405000e+07
Solution time =    0.02 sec.  Iterations = 79  Nodes = 0
Deterministic time = 12.00 ticks  (682.38 ticks/sec)


Incumbent solution written to file '/tmp/tmplLERFs.cplex.sol'.
